DATASET = "thpack2";
INSTANCE = "081";

WIDTH = 233;
HEIGHT = 220;
LENGTH = 587;

NO_OF_SHAPES = 5;
size = [|
  110,60,55 |
  80,78,71 |
  110,75,50 |
  100,72,40 |
  103,60,32 |
|];

verticality = [|
  0,1,1 |
  1,1,1 |
  0,1,1 |
  0,1,1 |
  0,1,1 |
|];

box_count = [
  11,
  21,
  22,
  12,
  20,
];
